9
-1 20 82 44 55 74 82 51 22
32 -1 46 99 11 24 8 59 17
3 41 -1 68 3 88 13 92 18
42 53 63 -1 65 18 78 33 30
91 97 98 79 -1 16 49 43 53
82 73 32 30 63 -1 90 26 99
14 94 47 51 73 9 -1 37 71
86 25 80 69 75 81 13 -1 50
57 86 77 19 62 57 60 59 -1
